c random clauses
p cnf 19 32
-19 -17 -16 -14 -11 -9 4 18 0
-19 -14 -10 -9 11 15 16 18 0
-19 -14 -6 -3 1 2 13 17 0
-19 -11 3 4 9 13 14 18 0
-18 -17 -11 2 4 7 12 19 0
-18 -17 -9 -6 -4 1 8 10 0
-18 -16 -8 -4 1 2 5 11 0
-18 -14 -9 -6 -3 4 8 11 0
-18 -8 -6 -5 7 15 16 19 0
-18 -4 -2 -1 6 8 13 16 0
-17 -14 -10 -3 1 6 12 19 0
-17 -13 -11 -9 -7 -2 4 12 0
-17 -13 -11 -8 -5 -4 14 18 0
-17 -13 -10 -9 -8 -4 12 18 0
-17 -9 -5 -3 6 11 16 19 0
-17 -7 -6 -2 4 9 10 16 0
-16 -15 -14 -11 1 6 8 10 0
-16 -15 -7 -4 -2 9 11 13 0
-16 -14 -13 -9 -8 1 4 17 0
-15 -10 -8 -6 -5 -2 -1 14 0
-15 -8 -7 -3 4 12 13 17 0
-14 -13 -12 -7 -2 -1 16 17 0
-14 -9 -3 -1 5 10 15 16 0
-14 -2 4 7 8 11 12 16 0
-13 -12 -9 1 7 11 15 19 0
-12 -11 -9 -7 -4 6 10 19 0
-12 -10 -5 1 2 14 18 19 0
-11 -8 -3 1 2 9 10 19 0
-11 -7 -6 -1 3 12 17 18 0
-11 -5 -1 3 8 17 18 19 0
-9 -7 -6 -5 -4 1 14 17 0
-4 -3 5 7 12 14 15 16 0
